
n_res = 4;
rcap = [40, 41, 567, 534];
rtype = [1, 1, 2, 2];
n_tasks = 100;
modes =  [{1, 2, 3}, {4, 5, 6}, {7, 8, 9}, {10, 11, 12}, {13, 14, 15}, {16, 17, 18}, {19, 20, 21}, {22, 23, 24}, {25, 26, 27}, {28, 29, 30}, {31, 32, 33}, {34, 35, 36}, {37, 38, 39}, {40, 41, 42}, {43, 44, 45}, {46, 47, 48}, {49, 50, 51}, {52, 53, 54}, {55, 56, 57}, {58, 59, 60}, {61, 62, 63}, {64, 65, 66}, {67, 68, 69}, {70, 71, 72}, {73, 74, 75}, {76, 77, 78}, {79, 80, 81}, {82, 83, 84}, {85, 86, 87}, {88, 89, 90}, {91, 92, 93}, {94, 95, 96}, {97, 98, 99}, {100, 101, 102}, {103, 104, 105}, {106, 107, 108}, {109, 110, 111}, {112, 113, 114}, {115, 116, 117}, {118, 119, 120}, {121, 122, 123}, {124, 125, 126}, {127, 128, 129}, {130, 131, 132}, {133, 134, 135}, {136, 137, 138}, {139, 140, 141}, {142, 143, 144}, {145, 146, 147}, {148, 149, 150}, {151, 152, 153}, {154, 155, 156}, {157, 158, 159}, {160, 161, 162}, {163, 164, 165}, {166, 167, 168}, {169, 170, 171}, {172, 173, 174}, {175, 176, 177}, {178, 179, 180}, {181, 182, 183}, {184, 185, 186}, {187, 188, 189}, {190, 191, 192}, {193, 194, 195}, {196, 197, 198}, {199, 200, 201}, {202, 203, 204}, {205, 206, 207}, {208, 209, 210}, {211, 212, 213}, {214, 215, 216}, {217, 218, 219}, {220, 221, 222}, {223, 224, 225}, {226, 227, 228}, {229, 230, 231}, {232, 233, 234}, {235, 236, 237}, {238, 239, 240}, {241, 242, 243}, {244, 245, 246}, {247, 248, 249}, {250, 251, 252}, {253, 254, 255}, {256, 257, 258}, {259, 260, 261}, {262, 263, 264}, {265, 266, 267}, {268, 269, 270}, {271, 272, 273}, {274, 275, 276}, {277, 278, 279}, {280, 281, 282}, {283, 284, 285}, {286, 287, 288}, {289, 290, 291}, {292, 293, 294}, {295, 296, 297}, {298, 299, 300}];
succ =  [{97, 95, 69, 68, 62, 60, 57, 56, 55, 53, 52, 49, 48, 47, 45, 44, 42, 41, 37, 36, 33, 25, 18}, {96, 70, 69, 68, 63, 62, 53, 48, 44, 41, 39, 37, 30, 23}, {99, 71, 70, 69, 67, 62, 59, 53, 48, 47, 41, 40, 39, 37, 36, 33, 30}, {98, 97, 90, 67, 65, 64, 62, 60, 58, 57, 55, 53, 48, 47, 45, 44, 43, 35}, {98, 97, 69, 68, 65, 60, 56, 51, 50, 47, 46, 18}, {100, 99, 97, 96, 92, 68, 67, 63, 62, 61, 57, 54, 52, 46, 44, 29}, {99, 97, 96, 93, 92, 89, 88, 80, 69, 67, 62, 61, 59, 56, 55, 51, 46, 41, 32}, {96, 95, 94, 85, 83, 68, 67, 66, 65, 62, 61, 59, 54, 52, 48, 44, 33}, {99, 96, 95, 94, 93, 92, 91, 90, 88, 69, 68, 67, 64, 62, 56, 46, 44, 39, 37}, {99, 96, 91, 90, 69, 63, 62, 59, 57, 53, 51, 47, 46, 44, 40}, {94, 93, 92, 90, 83, 70, 69, 63, 61, 60, 56, 55, 53, 52, 49, 48, 46}, {98, 87, 80, 65, 64, 63, 62, 61, 59, 53, 48, 39, 36}, {94, 93, 86, 69, 67, 64, 63, 58, 46, 44, 39, 35}, {98, 97, 93, 92, 90, 88, 87, 82, 76, 71, 70, 55, 51, 48, 47, 46}, {99, 97, 93, 91, 85, 79, 78, 70, 68, 63, 61, 59, 53, 50, 47}, {97, 94, 91, 90, 89, 85, 69, 68, 67, 66, 64, 62, 61, 55, 52, 51, 42}, {97, 96, 95, 91, 90, 88, 70, 66, 64, 62, 55, 47, 46, 44}, {96, 93, 91, 90, 87, 85, 83, 80, 79, 70, 67, 63, 61, 59, 39}, {98, 96, 91, 90, 88, 85, 83, 82, 78, 62, 51, 44, 40}, {97, 95, 91, 89, 88, 86, 84, 82, 80, 67, 64, 53, 46, 44}, {97, 84, 82, 81, 77, 66, 65, 64, 60, 56, 47, 44}, {96, 90, 88, 87, 83, 66, 61, 60, 59, 56, 49, 46}, {98, 92, 90, 89, 87, 82, 75, 67, 66, 58, 47, 46}, {96, 93, 86, 83, 76, 68, 62, 61, 48, 46}, {99, 93, 91, 89, 88, 85, 82, 80, 78, 75, 74, 73, 59, 50}, {98, 96, 94, 88, 87, 86, 85, 84, 83, 82, 81, 77, 76, 62, 49}, {93, 92, 90, 88, 85, 81, 77, 76, 71, 67, 56, 47}, {98, 95, 93, 89, 86, 85, 83, 82, 80, 78, 77, 71, 67, 66, 60}, {94, 90, 88, 87, 86, 83, 82, 80, 75, 53, 51}, {97, 93, 91, 87, 80, 79, 66, 65, 60, 55}, {90, 87, 85, 83, 81, 79, 77, 73, 72, 68, 66, 61}, {91, 86, 83, 82, 78, 77, 53, 44}, {98, 91, 90, 89, 86, 84, 82, 79, 78, 77, 76, 75, 74, 73, 72}, {92, 89, 87, 84, 81, 79, 77, 75, 74, 72, 66, 63}, {92, 85, 83, 81, 78, 74, 73, 72, 68, 66, 61}, {90, 84, 83, 75, 74, 66, 46}, {89, 85, 84, 81, 77, 76, 74, 73, 72, 61}, {98, 87, 85, 83, 78, 76, 74, 72, 63}, {89, 84, 82, 81, 78, 77, 73, 72, 66}, {92, 86, 81, 80, 75, 74, 73, 72, 66}, {90, 87, 79, 78, 77, 76, 74, 73, 72}, {86, 84, 81, 80, 79, 77, 76, 74, 72}, {91, 86, 84, 83, 79, 78, 77, 75, 73}, {87, 79, 76, 75, 74, 73, 72}, {93, 92, 82, 77, 75, 74, 73}, {85, 81, 78, 77, 73, 72}, {94, 83, 80, 74, 73, 72}, {91, 89, 84, 79, 77, 72}, {80, 79, 78, 75, 73, 72}, {90, 87, 84, 77, 66}, {95, 84, 79, 77, 73}, {80, 78, 77, 76, 72}, {74, 73, 72, 66}, {89, 75, 72, 69}, {86, 75, 74, 73}, {79, 78, 75, 74}, {93, 88, 77, 74}, {95, 81, 78, 76}, {86, 81, 72}, {75, 73, 72}, {82, 75}, {75, 74}, {88, 73}, {83, 78}, {92, 88}, {76}, {74}, {80}, {82}, {89}, {75}, {}, {}, {}, {}, {}, {}, {}, {}, {}, {}, {}, {}, {}, {}, {}, {}, {}, {}, {}, {}, {}, {}, {}, {}, {}, {}, {}, {}, {}];
n_opt = 300;
dur = [4, 5, 7, 1, 4, 5, 4, 9, 10, 4, 7, 10, 3, 8, 10, 1, 2, 8, 3, 4, 5, 1, 4, 5, 1, 8, 8, 1, 4, 6, 5, 6, 8, 6, 7, 9, 1, 7, 8, 3, 9, 10, 3, 7, 8, 3, 5, 6, 1, 2, 9, 2, 5, 8, 5, 8, 9, 1, 3, 6, 1, 2, 7, 2, 4, 8, 1, 3, 8, 3, 5, 7, 3, 3, 6, 2, 4, 7, 3, 8, 10, 1, 7, 10, 4, 5, 8, 7, 8, 9, 5, 8, 9, 2, 3, 10, 4, 4, 8, 4, 8, 9, 2, 3, 6, 2, 6, 9, 2, 3, 8, 3, 6, 8, 3, 3, 10, 1, 1, 3, 1, 5, 6, 4, 9, 10, 1, 2, 10, 3, 5, 5, 2, 4, 5, 1, 3, 9, 2, 5, 7, 1, 9, 10, 2, 6, 6, 1, 2, 3, 5, 7, 8, 1, 8, 8, 5, 7, 9, 2, 3, 7, 7, 7, 10, 2, 2, 5, 3, 4, 5, 3, 7, 8, 2, 5, 6, 3, 5, 9, 2, 6, 10, 2, 6, 6, 1, 5, 8, 2, 8, 10, 3, 6, 10, 2, 6, 10, 2, 5, 6, 1, 2, 9, 1, 2, 5, 2, 4, 10, 6, 7, 9, 4, 9, 10, 1, 6, 8, 3, 5, 8, 4, 6, 9, 8, 9, 10, 6, 7, 8, 6, 7, 8, 6, 8, 9, 1, 5, 9, 3, 5, 7, 3, 4, 6, 2, 2, 3, 2, 6, 10, 3, 8, 9, 8, 9, 10, 8, 9, 10, 1, 4, 6, 5, 7, 8, 1, 6, 8, 6, 7, 10, 3, 4, 8, 5, 8, 9, 2, 6, 8, 1, 5, 8, 2, 2, 10, 2, 3, 7, 1, 3, 8, 2, 6, 8, 4, 7, 8];
rreq = [|6, 0, 5, 0, 0, 0, 7, 6, 4, 0, 0, 3, 6, 0, 4, 3, 2, 1, 7, 7, 7, 0, 5, 4, 8, 0, 1, 0, 0, 0, 0, 0, 5, 0, 5, 0, 0, 7, 5, 9, 0, 0, 9, 0, 0, 3, 0, 2, 0, 8, 0, 3, 2, 0, 0, 0, 0, 5, 5, 5, 2, 0, 2, 0, 0, 2, 6, 0, 0, 0, 0, 0, 9, 0, 5, 10, 0, 9, 0, 2, 0, 0, 7, 0, 0, 0, 2, 6, 0, 3, 0, 3, 1, 9, 6, 2, 6, 0, 0, 8, 7, 7, 2, 0, 0, 5, 0, 2, 0, 5, 3, 0, 3, 0, 8, 0, 2, 8, 0, 0, 5, 4, 3, 8, 0, 0, 6, 4, 3, 6, 6, 0, 6, 5, 0, 7, 0, 3, 0, 4, 2, 4, 0, 0, 0, 3, 0, 0, 7, 0, 9, 0, 0, 8, 0, 7, 9, 0, 9, 9, 5, 0, 0, 7, 6, 0, 2, 0, 8, 0, 7, 1, 0, 1, 5, 5, 5, 9, 0, 7, 5, 0, 0, 0, 0, 1, 0, 8, 6, 8, 7, 0, 0, 0, 4, 8, 0, 0, 0, 0, 0, 6, 3, 3, 4, 0, 2, 0, 6, 6, 8, 0, 0, 0, 7, 6, 5, 4, 0, 0, 2, 2, 0, 7, 7, 8, 0, 4, 7, 0, 6, 0, 1, 1, 0, 0, 0, 0, 0, 0, 8, 0, 8, 9, 0, 0, 0, 5, 3, 10, 5, 4, 0, 0, 0, 0, 0, 0, 9, 7, 0, 0, 0, 0, 7, 0, 0, 8, 4, 4, 8, 8, 7, 9, 0, 0, 0, 0, 4, 0, 3, 0, 0, 0, 8, 0, 4, 2, 0, 9, 0, 0, 9, 0, 0, 6, 5, 0, 2, 2
 |0, 4, 0, 7, 7, 5, 0, 0, 0, 6, 5, 0, 0, 5, 0, 0, 0, 0, 0, 0, 0, 8, 0, 0, 0, 6, 0, 7, 6, 4, 7, 5, 0, 3, 0, 3, 3, 0, 0, 0, 7, 7, 0, 7, 6, 0, 4, 0, 4, 0, 3, 0, 0, 3, 7, 5, 3, 0, 0, 0, 0, 3, 0, 3, 1, 0, 0, 5, 5, 8, 7, 7, 0, 3, 0, 0, 7, 0, 7, 0, 4, 8, 0, 7, 10, 6, 0, 0, 5, 0, 7, 0, 0, 0, 0, 0, 0, 1, 1, 0, 0, 0, 0, 2, 1, 0, 4, 0, 7, 0, 0, 8, 0, 2, 0, 5, 0, 0, 2, 2, 0, 0, 0, 0, 6, 6, 0, 0, 0, 0, 0, 5, 0, 0, 5, 0, 5, 0, 5, 0, 0, 0, 2, 2, 7, 0, 5, 7, 0, 7, 0, 2, 1, 0, 7, 0, 0, 8, 0, 0, 0, 3, 5, 0, 0, 2, 0, 2, 0, 6, 0, 0, 4, 0, 0, 0, 0, 0, 3, 0, 0, 6, 5, 8, 5, 0, 8, 0, 0, 0, 0, 4, 5, 3, 0, 0, 3, 3, 4, 4, 4, 0, 0, 0, 0, 3, 0, 4, 0, 0, 0, 3, 3, 5, 0, 0, 0, 0, 6, 8, 0, 0, 7, 0, 0, 0, 7, 0, 0, 5, 0, 7, 0, 0, 6, 4, 4, 9, 4, 3, 0, 6, 0, 0, 6, 6, 7, 0, 0, 0, 0, 0, 7, 6, 3, 5, 4, 1, 0, 0, 6, 6, 4, 2, 0, 6, 6, 0, 0, 0, 0, 0, 0, 0, 2, 2, 3, 3, 0, 5, 0, 3, 7, 4, 0, 5, 0, 0, 7, 0, 3, 8, 0, 7, 9, 0, 0, 10, 0, 0
 |9, 8, 8, 10, 6, 6, 7, 5, 2, 9, 7, 6, 7, 5, 5, 8, 8, 7, 6, 3, 2, 3, 1, 1, 7, 5, 5, 9, 9, 9, 9, 7, 6, 5, 4, 4, 10, 8, 7, 6, 6, 5, 5, 3, 3, 6, 6, 5, 10, 9, 7, 10, 8, 7, 7, 6, 4, 4, 3, 3, 7, 6, 6, 6, 6, 6, 7, 7, 5, 10, 7, 6, 9, 7, 5, 4, 4, 4, 1, 1, 1, 7, 4, 4, 7, 5, 5, 9, 5, 3, 5, 4, 4, 10, 9, 9, 6, 5, 3, 9, 8, 7, 10, 5, 5, 2, 2, 1, 5, 4, 4, 4, 4, 3, 10, 8, 8, 6, 4, 4, 3, 2, 1, 3, 3, 2, 5, 5, 3, 9, 9, 9, 8, 8, 7, 8, 8, 6, 6, 3, 3, 7, 5, 2, 9, 4, 2, 3, 2, 1, 10, 8, 6, 10, 4, 4, 5, 4, 3, 8, 5, 4, 5, 2, 2, 7, 5, 5, 8, 7, 6, 8, 7, 5, 5, 4, 3, 5, 4, 3, 4, 2, 2, 8, 4, 4, 8, 7, 6, 8, 6, 5, 8, 6, 5, 4, 4, 3, 7, 5, 3, 1, 1, 1, 8, 7, 6, 4, 2, 1, 9, 4, 3, 8, 3, 3, 8, 6, 6, 7, 7, 7, 6, 5, 5, 4, 4, 4, 5, 5, 5, 6, 6, 6, 3, 3, 3, 5, 3, 3, 8, 7, 4, 9, 6, 5, 8, 8, 7, 7, 6, 6, 8, 6, 6, 7, 7, 7, 9, 9, 9, 7, 6, 6, 10, 8, 7, 3, 3, 1, 7, 7, 7, 6, 5, 4, 9, 7, 5, 9, 7, 3, 1, 1, 1, 7, 6, 3, 9, 8, 7, 9, 9, 8, 3, 1, 1, 8, 6, 6
 |7, 5, 4, 8, 5, 3, 7, 6, 6, 9, 9, 7, 7, 7, 7, 7, 5, 4, 5, 2, 2, 5, 4, 3, 4, 2, 2, 7, 5, 4, 6, 5, 3, 7, 6, 5, 4, 4, 4, 6, 4, 1, 4, 3, 2, 8, 7, 7, 8, 7, 3, 6, 5, 2, 5, 4, 1, 4, 4, 3, 8, 7, 5, 7, 4, 3, 5, 4, 2, 9, 6, 4, 10, 7, 6, 7, 4, 3, 6, 6, 5, 6, 5, 4, 10, 9, 8, 8, 8, 7, 6, 6, 5, 8, 4, 1, 3, 2, 1, 5, 4, 4, 3, 3, 3, 2, 2, 2, 7, 3, 1, 6, 6, 6, 9, 9, 9, 10, 9, 8, 6, 2, 1, 5, 4, 4, 4, 4, 2, 8, 7, 6, 5, 5, 5, 8, 6, 2, 4, 3, 3, 9, 5, 3, 2, 2, 2, 9, 9, 8, 6, 5, 4, 8, 7, 6, 5, 5, 5, 5, 4, 4, 10, 9, 9, 9, 9, 8, 7, 5, 5, 4, 3, 3, 6, 6, 4, 6, 6, 6, 5, 5, 5, 8, 7, 6, 7, 5, 3, 10, 9, 9, 2, 2, 2, 7, 6, 5, 8, 8, 5, 6, 6, 5, 8, 6, 4, 6, 4, 4, 6, 5, 5, 4, 3, 3, 4, 3, 3, 7, 5, 3, 9, 6, 5, 1, 1, 1, 10, 6, 4, 8, 6, 2, 7, 6, 5, 8, 8, 8, 7, 3, 2, 4, 3, 2, 7, 7, 7, 7, 4, 2, 8, 5, 5, 9, 7, 3, 4, 4, 4, 6, 3, 3, 7, 7, 7, 7, 5, 5, 6, 4, 2, 9, 9, 9, 3, 2, 2, 9, 7, 5, 2, 2, 2, 6, 4, 3, 2, 2, 2, 10, 9, 8, 10, 8, 6, 7, 7, 4|];